6,1,3,2,4,2,7,3,3,3,8,2,1,3,5,2,15,3,15,4,3,5,11,3,5,4,10,5,11,4,11,5;3,1,1,1,6,2,5,1,15,1,9,1,14,2,7,4,7,5,6,4,6,5,13,5;2,1,7,2,8,1,11,1,10,2,10,3,12,3,12,4,12,5,10,4,9,4,14,5,8,5;4,1,10,1,14,1,1,2,4,3,4,4,6,3,15,2,2,4,8,3,11,2,14,3,5,3,9,3,8,4,15,5,5,5,4,5,1,5;7,1,13,1,2,2,12,1,2,3,12,2,13,2,13,3,13,4,9,2,3,4,2,5,14,4,1,4,9,5;
